Gamma-centered mesh for DOS
0
G
2 2 1
0.0 0.0 0.0